(set-logic QF_S)
(declare-fun var0 () String)
(assert (str.in.re var0 (re.++ (re.union (re.* (str.to.re "00")) (re.* (str.to.re "1"))) (re.++ (re.+ (re.* (str.to.re "222"))) (re.++ (re.union (re.* (str.to.re "333")) (re.* (str.to.re "4"))) (re.++ (re.+ (re.* (str.to.re "5"))) (re.++ (re.* (re.* (str.to.re "666"))) (re.++ (re.* (re.+ (str.to.re "77"))) (re.++ (re.+ (re.* (str.to.re "88"))) (re.++ (re.+ (re.* (str.to.re "99"))) (re.++ (re.+ (re.union (str.to.re "aaa") (str.to.re "b"))) (re.++ (re.union (re.* (str.to.re "c")) (re.* (str.to.re "dd"))) (re.++ (re.union (re.union (str.to.re "ee") (str.to.re "ff")) (re.union (str.to.re "gg") (str.to.re "h"))) (re.++ (re.union (re.+ (str.to.re "iii")) (re.+ (str.to.re "j"))) (re.++ (re.* (re.+ (str.to.re "k"))) (re.++ (re.* (re.union (str.to.re "l") (str.to.re "mmm"))) (re.++ (re.* (re.union (str.to.re "n") (str.to.re "oo"))) (re.++ (re.union (re.* (str.to.re "p")) (re.* (str.to.re "qqq"))) (re.++ (re.* (re.+ (str.to.re "r"))) (re.++ (re.* (re.union (str.to.re "ss") (str.to.re "ttt"))) (re.++ (re.union (re.* (str.to.re "uuu")) (re.* (str.to.re "vvv"))) (re.++ (re.+ (re.union (str.to.re "ww") (str.to.re "xxx"))) (re.++ (re.+ (re.+ (str.to.re "yy"))) (re.++ (re.union (re.* (str.to.re "zzz")) (re.* (str.to.re "AA"))) (re.++ (re.+ (re.+ (str.to.re "B"))) (re.++ (re.union (re.* (str.to.re "CC")) (re.* (str.to.re "D"))) (re.++ (re.union (re.union (str.to.re "E") (str.to.re "FFF")) (re.union (str.to.re "GG") (str.to.re "HHH"))) (re.++ (re.* (re.union (str.to.re "I") (str.to.re "JJJ"))) (re.++ (re.union (re.union (str.to.re "K") (str.to.re "LL")) (re.union (str.to.re "MMM") (str.to.re "NN"))) (re.++ (re.+ (re.+ (str.to.re "OO"))) (re.++ (re.+ (re.union (str.to.re "PPP") (str.to.re "QQQ"))) (re.++ (re.union (re.+ (str.to.re "RRR")) (re.+ (str.to.re "S"))) (re.++ (re.+ (re.union (str.to.re "TT") (str.to.re "UU"))) (re.++ (re.union (re.union (str.to.re "VVV") (str.to.re "WWW")) (re.union (str.to.re "XXX") (str.to.re "YYY"))) (re.++ (re.+ (re.union (str.to.re "Z") (str.to.re "!"))) (re.++ (re.union (re.* (str.to.re """")) (re.* (str.to.re "###"))) (re.++ (re.+ (re.union (str.to.re "$") (str.to.re "%%%"))) (re.++ (re.+ (re.union (str.to.re "&&") (str.to.re "'''"))) (re.++ (re.union (re.+ (str.to.re "((")) (re.+ (str.to.re ")))"))) (re.++ (re.union (re.* (str.to.re "**")) (re.* (str.to.re "+"))) (re.++ (re.union (re.+ (str.to.re ",,,")) (re.+ (str.to.re "---"))) (re.++ (re.+ (re.union (str.to.re "...") (str.to.re "///"))) (re.++ (re.union (re.+ (str.to.re ":::")) (re.+ (str.to.re ";;;"))) (re.++ (re.union (re.union (str.to.re "<") (str.to.re "===")) (re.union (str.to.re ">") (str.to.re "???"))) (re.++ (re.+ (re.+ (str.to.re "@@@"))) (re.++ (re.+ (re.union (str.to.re "[") (str.to.re "\\"))) (re.++ (re.* (re.+ (str.to.re "]"))) (re.++ (re.union (re.union (str.to.re "^^") (str.to.re "_")) (re.union (str.to.re "```") (str.to.re "{{{"))) (re.++ (re.+ (re.* (str.to.re "||"))) (re.++ (re.* (re.* (str.to.re "}"))) (re.++ (re.union (re.+ (str.to.re "~~~")) (re.+ (str.to.re "00"))) (re.++ (re.union (re.union (str.to.re "111") (str.to.re "2")) (re.union (str.to.re "333") (str.to.re "4"))) (re.++ (re.* (re.+ (str.to.re "55"))) (re.++ (re.* (re.+ (str.to.re "666"))) (re.++ (re.+ (re.* (str.to.re "777"))) (re.++ (re.+ (re.+ (str.to.re "888"))) (re.++ (re.union (re.union (str.to.re "999") (str.to.re "a")) (re.union (str.to.re "b") (str.to.re "ccc"))) (re.++ (re.+ (re.* (str.to.re "ddd"))) (re.++ (re.* (re.+ (str.to.re "eee"))) (re.++ (re.union (re.union (str.to.re "f") (str.to.re "gg")) (re.union (str.to.re "h") (str.to.re "iii"))) (re.++ (re.union (re.* (str.to.re "jj")) (re.* (str.to.re "k"))) (re.++ (re.union (re.* (str.to.re "ll")) (re.* (str.to.re "mmm"))) (re.++ (re.* (re.* (str.to.re "n"))) (re.++ (re.* (re.* (str.to.re "oo"))) (re.++ (re.* (re.* (str.to.re "pp"))) (re.++ (re.union (re.union (str.to.re "qq") (str.to.re "r")) (re.union (str.to.re "ss") (str.to.re "tt"))) (re.++ (re.* (re.* (str.to.re "uuu"))) (re.++ (re.+ (re.union (str.to.re "vvv") (str.to.re "ww"))) (re.++ (re.+ (re.+ (str.to.re "x"))) (re.++ (re.* (re.* (str.to.re "yyy"))) (re.++ (re.union (re.* (str.to.re "z")) (re.* (str.to.re "AAA"))) (re.++ (re.* (re.* (str.to.re "BBB"))) (re.++ (re.* (re.* (str.to.re "C"))) (re.++ (re.union (re.* (str.to.re "D")) (re.* (str.to.re "E"))) (re.++ (re.+ (re.* (str.to.re "FF"))) (re.++ (re.+ (re.* (str.to.re "G"))) (re.++ (re.* (re.union (str.to.re "HHH") (str.to.re "I"))) (re.++ (re.* (re.* (str.to.re "J"))) (re.++ (re.* (re.union (str.to.re "KK") (str.to.re "L"))) (re.++ (re.union (re.* (str.to.re "M")) (re.* (str.to.re "NNN"))) (re.++ (re.* (re.+ (str.to.re "OOO"))) (re.++ (re.* (re.+ (str.to.re "PPP"))) (re.++ (re.+ (re.* (str.to.re "QQQ"))) (re.++ (re.union (re.+ (str.to.re "RR")) (re.+ (str.to.re "S"))) (re.++ (re.+ (re.* (str.to.re "T"))) (re.++ (re.+ (re.+ (str.to.re "U"))) (re.++ (re.+ (re.+ (str.to.re "VVV"))) (re.++ (re.* (re.+ (str.to.re "WWW"))) (re.++ (re.union (re.union (str.to.re "X") (str.to.re "YY")) (re.union (str.to.re "Z") (str.to.re "!!!"))) (re.++ (re.* (re.union (str.to.re """") (str.to.re "##"))) (re.++ (re.union (re.* (str.to.re "$$$")) (re.* (str.to.re "%"))) (re.++ (re.+ (re.union (str.to.re "&") (str.to.re "''"))) (re.++ (re.union (re.* (str.to.re "(")) (re.* (str.to.re ")"))) (re.++ (re.union (re.+ (str.to.re "**")) (re.+ (str.to.re "+++"))) (re.++ (re.+ (re.union (str.to.re ",,,") (str.to.re "--"))) (re.++ (re.+ (re.* (str.to.re "..."))) (re.++ (re.+ (re.union (str.to.re "//") (str.to.re "::"))) (re.++ (re.+ (re.* (str.to.re ";;"))) (re.++ (re.+ (re.* (str.to.re "<<"))) (re.++ (re.* (re.union (str.to.re "=") (str.to.re ">>>"))) (re.++ (re.+ (re.union (str.to.re "??") (str.to.re "@@@"))) (re.++ (re.union (re.+ (str.to.re "[[")) (re.+ (str.to.re "\\\\\\"))) (re.++ (re.+ (re.* (str.to.re "]"))) (re.++ (re.union (re.+ (str.to.re "^^^")) (re.+ (str.to.re "__"))) (re.++ (re.* (re.union (str.to.re "`") (str.to.re "{{"))) (re.++ (re.union (re.union (str.to.re "|||") (str.to.re "}}}")) (re.union (str.to.re "~~~") (str.to.re "000"))) (re.++ (re.* (re.* (str.to.re "11"))) (re.++ (re.* (re.union (str.to.re "222") (str.to.re "33"))) (re.++ (re.+ (re.+ (str.to.re "444"))) (re.++ (re.union (re.union (str.to.re "5") (str.to.re "6")) (re.union (str.to.re "777") (str.to.re "888"))) (re.++ (re.* (re.+ (str.to.re "99"))) (re.++ (re.union (re.union (str.to.re "a") (str.to.re "bb")) (re.union (str.to.re "c") (str.to.re "dd"))) (re.++ (re.* (re.+ (str.to.re "ee"))) (re.++ (re.union (re.* (str.to.re "fff")) (re.* (str.to.re "gg"))) (re.++ (re.union (re.* (str.to.re "hhh")) (re.* (str.to.re "iii"))) (re.++ (re.+ (re.union (str.to.re "jj") (str.to.re "k"))) (re.++ (re.* (re.+ (str.to.re "lll"))) (re.++ (re.union (re.+ (str.to.re "m")) (re.+ (str.to.re "nn"))) (re.++ (re.* (re.+ (str.to.re "ooo"))) (re.++ (re.* (re.* (str.to.re "pp"))) (re.++ (re.* (re.+ (str.to.re "qqq"))) (re.++ (re.+ (re.+ (str.to.re "rrr"))) (re.++ (re.union (re.* (str.to.re "s")) (re.* (str.to.re "ttt"))) (re.++ (re.* (re.+ (str.to.re "uu"))) (re.++ (re.+ (re.* (str.to.re "v"))) (re.++ (re.union (re.* (str.to.re "www")) (re.* (str.to.re "xxx"))) (re.++ (re.* (re.+ (str.to.re "yy"))) (re.++ (re.* (re.* (str.to.re "zz"))) (re.union (re.+ (str.to.re "A")) (re.+ (str.to.re "B")))))))))))))))))))))))))))))))))))))))))))))))))))))))))))))))))))))))))))))))))))))))))))))))))))))))))))))))))))))))))))))))))))
(check-sat)